7,8	0,0	12,4	12,6	0,0	0,0	0,0	0,0	0,0	12,6
9,8	6,0	0,0	14,5	6,9	0,0	0,0	18,1	0,0	0,0
0,0	0,0	15,3	0,0	12,5	16,4	0,0	0,0	13,2	0,0
13,2	0,0	18,7	0,0	0,0	0,0	19,7	0,0	0,0	0,0
0,0	18,2	0,0	8,3	15,1	0,0	0,0	15,1	0,0	0,0
0,0	7,3	6,4	0,0	5,7	14,4	0,0	0,0	18,1	0,0
0,0	9,4	0,0	15,1	0,0	0,0	9,6	0,0	0,0	19,6
9,6	0,0	10,7	0,0	0,0	0,0	0,0	0,0	0,0	14,7
0,0	18,6	0,0	14,9	8,9	0,0	0,0	11,8	0,0	0,0
0,0	0,0	16,2	0,0	0,0	14,8	11,3	0,0	0,0	19,0
									
4,1	4,3	2,7	4,9	2,8	3,0	3,2	5,0	4,4	4,5
